(set-logic QF_LRA)
(declare-fun fluent_robot_at_r0_p0@0 () Bool)
(declare-fun fluent_robot_at_r0_p1@0 () Bool)
(declare-fun fluent_robot_at_r0_p2@0 () Bool)
(declare-fun fluent_robot_free_r0@0 () Bool)
(declare-fun dur_make_treatment@1 () Real)
(declare-fun fluent_pallet_at_plt0_p0@0 () Bool)
(declare-fun fluent_pallet_at_plt0_p1@0 () Bool)
(declare-fun fluent_pallet_at_plt0_p2@0 () Bool)
(declare-fun fluent_battery_level_r0@0 () Real)
(declare-fun t@1 () Real)
(declare-fun parameter_make_treatment_t@1 () Real)
(declare-fun fluent_position_free_p0@0 () Bool)
(declare-fun fluent_position_free_p1@0 () Bool)
(declare-fun fluent_position_free_p2@0 () Bool)
(declare-fun parameter_make_treatment_pallet@1 () Real)
(declare-fun parameter_make_treatment_r@1 () Real)
(declare-fun fluent_robot_has_r0_plt0@0 () Bool)
(declare-fun parameter_make_treatment_pos@1 () Real)
(declare-fun fluent_ready_plt0_p0_t0@0 () Bool)
(declare-fun fluent_ready_plt0_p1_t0@0 () Bool)
(declare-fun fluent_ready_plt0_p2_t0@0 () Bool)
(declare-fun fluent_ready_plt0_p0_t1@0 () Bool)
(declare-fun fluent_ready_plt0_p1_t1@0 () Bool)
(declare-fun fluent_ready_plt0_p2_t1@0 () Bool)
(declare-fun fluent_ready_plt0_p0_t2@0 () Bool)
(declare-fun fluent_ready_plt0_p1_t2@0 () Bool)
(declare-fun fluent_ready_plt0_p2_t2@0 () Bool)
(declare-fun fluent_treated_plt0_t0@0 () Bool)
(declare-fun fluent_treated_plt0_t1@0 () Bool)
(declare-fun fluent_treated_plt0_t2@0 () Bool)
(declare-fun act_move@1 () Bool)
(declare-fun parameter_move_topos@1 () Real)
(declare-fun parameter_move_frompos@1 () Real)
(declare-fun parameter_move_r@1 () Real)
(declare-fun fluent_robot_at_r0_p0@1 () Bool)
(declare-fun fluent_robot_at_r0_p1@1 () Bool)
(declare-fun act_make_treatment@1 () Bool)
(declare-fun fluent_robot_at_r0_p2@1 () Bool)
(declare-fun fluent_battery_level_r0@1 () Real)
(declare-fun act_load@1 () Bool)
(declare-fun parameter_load_t@1 () Real)
(declare-fun parameter_load_pos@1 () Real)
(declare-fun parameter_load_pallet@1 () Real)
(declare-fun parameter_load_r@1 () Real)
(declare-fun fluent_robot_free_r0@1 () Bool)
(declare-fun fluent_ready_plt0_p0_t0@1 () Bool)
(declare-fun fluent_ready_plt0_p1_t0@1 () Bool)
(declare-fun fluent_ready_plt0_p2_t0@1 () Bool)
(declare-fun fluent_ready_plt0_p0_t1@1 () Bool)
(declare-fun fluent_ready_plt0_p1_t1@1 () Bool)
(declare-fun fluent_ready_plt0_p2_t1@1 () Bool)
(declare-fun fluent_ready_plt0_p0_t2@1 () Bool)
(declare-fun fluent_ready_plt0_p1_t2@1 () Bool)
(declare-fun fluent_ready_plt0_p2_t2@1 () Bool)
(declare-fun fluent_pallet_at_plt0_p0@1 () Bool)
(declare-fun fluent_pallet_at_plt0_p1@1 () Bool)
(declare-fun fluent_pallet_at_plt0_p2@1 () Bool)
(declare-fun fluent_robot_has_r0_plt0@1 () Bool)
(declare-fun fluent_treated_plt0_t0@1 () Bool)
(declare-fun fluent_treated_plt0_t1@1 () Bool)
(declare-fun fluent_treated_plt0_t2@1 () Bool)
(declare-fun fluent_position_free_p0@1 () Bool)
(declare-fun fluent_position_free_p1@1 () Bool)
(declare-fun fluent_position_free_p2@1 () Bool)
(declare-fun act_load_at_depot@1 () Bool)
(declare-fun parameter_load_at_depot_pos@1 () Real)
(declare-fun parameter_load_at_depot_r@1 () Real)
(declare-fun parameter_load_at_depot_pallet@1 () Real)
(declare-fun act_unload_at_depot@1 () Bool)
(declare-fun parameter_unload_at_depot_pos@1 () Real)
(declare-fun parameter_unload_at_depot_r@1 () Real)
(declare-fun parameter_unload_at_depot_pallet@1 () Real)
(assert (let ((.def_0 (= parameter_unload_at_depot_pallet@1 4.0))) (let ((.def_1 (= parameter_unload_at_depot_r@1 0.0))) (let ((.def_2 (<= fluent_battery_level_r0@1 100.0))) (let ((.def_3 (<= 0.0 fluent_battery_level_r0@1))) (let ((.def_4 (= parameter_unload_at_depot_pos@1 3.0))) (let ((.def_5 (= parameter_unload_at_depot_pos@1 2.0))) (let ((.def_6 (= parameter_unload_at_depot_pos@1 1.0))) (let ((.def_7 (or .def_6 .def_5 .def_4))) (let ((.def_8 (= parameter_load_at_depot_pallet@1 4.0))) (let ((.def_9 (= parameter_load_at_depot_r@1 0.0))) (let ((.def_10 (= parameter_load_at_depot_pos@1 3.0))) (let ((.def_11 (= parameter_load_at_depot_pos@1 2.0))) (let ((.def_12 (= parameter_load_at_depot_pos@1 1.0))) (let ((.def_13 (or .def_12 .def_11 .def_10))) (let ((.def_14 (= parameter_move_r@1 0.0))) (let ((.def_15 (= parameter_move_frompos@1 3.0))) (let ((.def_16 (= parameter_move_frompos@1 2.0))) (let ((.def_17 (= parameter_move_frompos@1 1.0))) (let ((.def_18 (or .def_17 .def_16 .def_15))) (let ((.def_19 (= parameter_move_topos@1 3.0))) (let ((.def_20 (= parameter_move_topos@1 2.0))) (let ((.def_21 (= parameter_move_topos@1 1.0))) (let ((.def_22 (or .def_21 .def_20 .def_19))) (let ((.def_23 (= parameter_make_treatment_pos@1 3.0))) (let ((.def_24 (= parameter_make_treatment_pos@1 2.0))) (let ((.def_25 (= parameter_make_treatment_pos@1 1.0))) (let ((.def_26 (or .def_25 .def_24 .def_23))) (let ((.def_27 (= parameter_make_treatment_r@1 0.0))) (let ((.def_28 (= parameter_make_treatment_pallet@1 4.0))) (let ((.def_29 (= parameter_make_treatment_t@1 7.0))) (let ((.def_30 (= parameter_make_treatment_t@1 6.0))) (let ((.def_31 (= parameter_make_treatment_t@1 5.0))) (let ((.def_32 (or .def_31 .def_30 .def_29))) (let ((.def_33 (= parameter_load_r@1 0.0))) (let ((.def_34 (= parameter_load_pallet@1 4.0))) (let ((.def_35 (= parameter_load_pos@1 3.0))) (let ((.def_36 (= parameter_load_pos@1 2.0))) (let ((.def_37 (= parameter_load_pos@1 1.0))) (let ((.def_38 (or .def_37 .def_36 .def_35))) (let ((.def_39 (= parameter_load_t@1 7.0))) (let ((.def_40 (= parameter_load_t@1 6.0))) (let ((.def_41 (= parameter_load_t@1 5.0))) (let ((.def_42 (or .def_41 .def_40 .def_39))) (let ((.def_43 (and act_move@1 true .def_14))) (let ((.def_44 (= fluent_battery_level_r0@0 fluent_battery_level_r0@1))) (let ((.def_45 (not .def_44))) (let ((.def_46 (=> .def_45 .def_43))) (let ((.def_47 (and act_make_treatment@1 true .def_28 .def_23))) (let ((.def_48 (and act_unload_at_depot@1 true .def_0 .def_4))) (let ((.def_49 (and .def_48 .def_47))) (let ((.def_50 (not .def_49))) (let ((.def_51 (and act_load_at_depot@1 true .def_8 .def_10))) (let ((.def_52 (and .def_51 .def_47))) (let ((.def_53 (not .def_52))) (let ((.def_54 (and .def_51 .def_48))) (let ((.def_55 (not .def_54))) (let ((.def_56 (and act_load@1 true .def_34 .def_35))) (let ((.def_57 (and .def_56 .def_47))) (let ((.def_58 (not .def_57))) (let ((.def_59 (and .def_56 .def_48))) (let ((.def_60 (not .def_59))) (let ((.def_61 (and .def_56 .def_51))) (let ((.def_62 (not .def_61))) (let ((.def_63 (or .def_56 .def_51 .def_48 .def_47))) (let ((.def_64 (= fluent_pallet_at_plt0_p2@0 fluent_pallet_at_plt0_p2@1))) (let ((.def_65 (not .def_64))) (let ((.def_66 (=> .def_65 .def_63))) (let ((.def_67 (and act_make_treatment@1 true .def_28 .def_24))) (let ((.def_68 (and act_unload_at_depot@1 true .def_0 .def_5))) (let ((.def_69 (and .def_68 .def_67))) (let ((.def_70 (not .def_69))) (let ((.def_71 (and act_load_at_depot@1 true .def_8 .def_11))) (let ((.def_72 (and .def_71 .def_67))) (let ((.def_73 (not .def_72))) (let ((.def_74 (and .def_71 .def_68))) (let ((.def_75 (not .def_74))) (let ((.def_76 (and act_load@1 true .def_34 .def_36))) (let ((.def_77 (and .def_76 .def_67))) (let ((.def_78 (not .def_77))) (let ((.def_79 (and .def_76 .def_68))) (let ((.def_80 (not .def_79))) (let ((.def_81 (and .def_76 .def_71))) (let ((.def_82 (not .def_81))) (let ((.def_83 (or .def_76 .def_71 .def_68 .def_67))) (let ((.def_84 (= fluent_pallet_at_plt0_p1@0 fluent_pallet_at_plt0_p1@1))) (let ((.def_85 (not .def_84))) (let ((.def_86 (=> .def_85 .def_83))) (let ((.def_87 (and act_make_treatment@1 true .def_28 .def_25))) (let ((.def_88 (and act_unload_at_depot@1 true .def_0 .def_6))) (let ((.def_89 (and .def_88 .def_87))) (let ((.def_90 (not .def_89))) (let ((.def_91 (and act_load_at_depot@1 true .def_8 .def_12))) (let ((.def_92 (and .def_91 .def_87))) (let ((.def_93 (not .def_92))) (let ((.def_94 (and .def_91 .def_88))) (let ((.def_95 (not .def_94))) (let ((.def_96 (and act_load@1 true .def_34 .def_37))) (let ((.def_97 (and .def_96 .def_87))) (let ((.def_98 (not .def_97))) (let ((.def_99 (and .def_96 .def_88))) (let ((.def_100 (not .def_99))) (let ((.def_101 (and .def_96 .def_91))) (let ((.def_102 (not .def_101))) (let ((.def_103 (or .def_96 .def_91 .def_88 .def_87))) (let ((.def_104 (= fluent_pallet_at_plt0_p0@0 fluent_pallet_at_plt0_p0@1))) (let ((.def_105 (not .def_104))) (let ((.def_106 (=> .def_105 .def_103))) (let ((.def_107 (and act_load@1 true .def_34 .def_39))) (let ((.def_108 (= fluent_treated_plt0_t2@0 fluent_treated_plt0_t2@1))) (let ((.def_109 (not .def_108))) (let ((.def_110 (=> .def_109 .def_107))) (let ((.def_111 (and act_load@1 true .def_34 .def_40))) (let ((.def_112 (= fluent_treated_plt0_t1@0 fluent_treated_plt0_t1@1))) (let ((.def_113 (not .def_112))) (let ((.def_114 (=> .def_113 .def_111))) (let ((.def_115 (and act_load@1 true .def_34 .def_41))) (let ((.def_116 (= fluent_treated_plt0_t0@0 fluent_treated_plt0_t0@1))) (let ((.def_117 (not .def_116))) (let ((.def_118 (=> .def_117 .def_115))) (let ((.def_119 (and act_make_treatment@1 true .def_23))) (let ((.def_120 (and act_load@1 true .def_35))) (let ((.def_121 (and .def_120 .def_119))) (let ((.def_122 (not .def_121))) (let ((.def_123 (or .def_120 .def_119))) (let ((.def_124 (= fluent_position_free_p2@0 fluent_position_free_p2@1))) (let ((.def_125 (not .def_124))) (let ((.def_126 (=> .def_125 .def_123))) (let ((.def_127 (and act_make_treatment@1 true .def_24))) (let ((.def_128 (and act_load@1 true .def_36))) (let ((.def_129 (and .def_128 .def_127))) (let ((.def_130 (not .def_129))) (let ((.def_131 (or .def_128 .def_127))) (let ((.def_132 (= fluent_position_free_p1@0 fluent_position_free_p1@1))) (let ((.def_133 (not .def_132))) (let ((.def_134 (=> .def_133 .def_131))) (let ((.def_135 (and act_make_treatment@1 true .def_25))) (let ((.def_136 (and act_load@1 true .def_37))) (let ((.def_137 (and .def_136 .def_135))) (let ((.def_138 (not .def_137))) (let ((.def_139 (or .def_136 .def_135))) (let ((.def_140 (= fluent_position_free_p0@0 fluent_position_free_p0@1))) (let ((.def_141 (not .def_140))) (let ((.def_142 (=> .def_141 .def_139))) (let ((.def_143 (+ t@1 10.0))) (let ((.def_144 (= t@1 .def_143))) (let ((.def_145 (and act_make_treatment@1 true .def_144 .def_28 .def_23 .def_29))) (let ((.def_146 (and act_load@1 true .def_34 .def_35 .def_39))) (let ((.def_147 (and .def_146 .def_145))) (let ((.def_148 (not .def_147))) (let ((.def_149 (or .def_146 .def_145))) (let ((.def_150 (= fluent_ready_plt0_p2_t2@0 fluent_ready_plt0_p2_t2@1))) (let ((.def_151 (not .def_150))) (let ((.def_152 (=> .def_151 .def_149))) (let ((.def_153 (and act_make_treatment@1 true .def_144 .def_28 .def_24 .def_29))) (let ((.def_154 (and act_load@1 true .def_34 .def_36 .def_39))) (let ((.def_155 (and .def_154 .def_153))) (let ((.def_156 (not .def_155))) (let ((.def_157 (or .def_154 .def_153))) (let ((.def_158 (= fluent_ready_plt0_p1_t2@0 fluent_ready_plt0_p1_t2@1))) (let ((.def_159 (not .def_158))) (let ((.def_160 (=> .def_159 .def_157))) (let ((.def_161 (and act_make_treatment@1 true .def_144 .def_28 .def_25 .def_29))) (let ((.def_162 (and act_load@1 true .def_34 .def_37 .def_39))) (let ((.def_163 (and .def_162 .def_161))) (let ((.def_164 (not .def_163))) (let ((.def_165 (or .def_162 .def_161))) (let ((.def_166 (= fluent_ready_plt0_p0_t2@0 fluent_ready_plt0_p0_t2@1))) (let ((.def_167 (not .def_166))) (let ((.def_168 (=> .def_167 .def_165))) (let ((.def_169 (and act_make_treatment@1 true .def_144 .def_28 .def_23 .def_30))) (let ((.def_170 (and act_load@1 true .def_34 .def_35 .def_40))) (let ((.def_171 (and .def_170 .def_169))) (let ((.def_172 (not .def_171))) (let ((.def_173 (or .def_170 .def_169))) (let ((.def_174 (= fluent_ready_plt0_p2_t1@0 fluent_ready_plt0_p2_t1@1))) (let ((.def_175 (not .def_174))) (let ((.def_176 (=> .def_175 .def_173))) (let ((.def_177 (and act_make_treatment@1 true .def_144 .def_28 .def_24 .def_30))) (let ((.def_178 (and act_load@1 true .def_34 .def_36 .def_40))) (let ((.def_179 (and .def_178 .def_177))) (let ((.def_180 (not .def_179))) (let ((.def_181 (or .def_178 .def_177))) (let ((.def_182 (= fluent_ready_plt0_p1_t1@0 fluent_ready_plt0_p1_t1@1))) (let ((.def_183 (not .def_182))) (let ((.def_184 (=> .def_183 .def_181))) (let ((.def_185 (and act_make_treatment@1 true .def_144 .def_28 .def_25 .def_30))) (let ((.def_186 (and act_load@1 true .def_34 .def_37 .def_40))) (let ((.def_187 (and .def_186 .def_185))) (let ((.def_188 (not .def_187))) (let ((.def_189 (or .def_186 .def_185))) (let ((.def_190 (= fluent_ready_plt0_p0_t1@0 fluent_ready_plt0_p0_t1@1))) (let ((.def_191 (not .def_190))) (let ((.def_192 (=> .def_191 .def_189))) (let ((.def_193 (and act_make_treatment@1 true .def_144 .def_28 .def_23 .def_31))) (let ((.def_194 (and act_load@1 true .def_34 .def_35 .def_41))) (let ((.def_195 (and .def_194 .def_193))) (let ((.def_196 (not .def_195))) (let ((.def_197 (or .def_194 .def_193))) (let ((.def_198 (= fluent_ready_plt0_p2_t0@0 fluent_ready_plt0_p2_t0@1))) (let ((.def_199 (not .def_198))) (let ((.def_200 (=> .def_199 .def_197))) (let ((.def_201 (and act_make_treatment@1 true .def_144 .def_28 .def_24 .def_31))) (let ((.def_202 (and act_load@1 true .def_34 .def_36 .def_41))) (let ((.def_203 (and .def_202 .def_201))) (let ((.def_204 (not .def_203))) (let ((.def_205 (or .def_202 .def_201))) (let ((.def_206 (= fluent_ready_plt0_p1_t0@0 fluent_ready_plt0_p1_t0@1))) (let ((.def_207 (not .def_206))) (let ((.def_208 (=> .def_207 .def_205))) (let ((.def_209 (and act_make_treatment@1 true .def_144 .def_28 .def_25 .def_31))) (let ((.def_210 (and act_load@1 true .def_34 .def_37 .def_41))) (let ((.def_211 (and .def_210 .def_209))) (let ((.def_212 (not .def_211))) (let ((.def_213 (or .def_210 .def_209))) (let ((.def_214 (= fluent_ready_plt0_p0_t0@0 fluent_ready_plt0_p0_t0@1))) (let ((.def_215 (not .def_214))) (let ((.def_216 (=> .def_215 .def_213))) (let ((.def_217 (and act_make_treatment@1 true .def_27 .def_28))) (let ((.def_218 (and act_unload_at_depot@1 true .def_1 .def_0))) (let ((.def_219 (and .def_218 .def_217))) (let ((.def_220 (not .def_219))) (let ((.def_221 (and act_load_at_depot@1 true .def_9 .def_8))) (let ((.def_222 (and .def_221 .def_217))) (let ((.def_223 (not .def_222))) (let ((.def_224 (and .def_221 .def_218))) (let ((.def_225 (not .def_224))) (let ((.def_226 (and act_load@1 true .def_33 .def_34))) (let ((.def_227 (and .def_226 .def_217))) (let ((.def_228 (not .def_227))) (let ((.def_229 (and .def_226 .def_218))) (let ((.def_230 (not .def_229))) (let ((.def_231 (and .def_226 .def_221))) (let ((.def_232 (not .def_231))) (let ((.def_233 (or .def_226 .def_221 .def_218 .def_217))) (let ((.def_234 (= fluent_robot_has_r0_plt0@0 fluent_robot_has_r0_plt0@1))) (let ((.def_235 (not .def_234))) (let ((.def_236 (=> .def_235 .def_233))) (let ((.def_237 (and act_make_treatment@1 true .def_27))) (let ((.def_238 (and act_unload_at_depot@1 true .def_1))) (let ((.def_239 (and .def_238 .def_237))) (let ((.def_240 (not .def_239))) (let ((.def_241 (and act_load_at_depot@1 true .def_9))) (let ((.def_242 (and .def_241 .def_237))) (let ((.def_243 (not .def_242))) (let ((.def_244 (and .def_241 .def_238))) (let ((.def_245 (not .def_244))) (let ((.def_246 (and act_load@1 true .def_33))) (let ((.def_247 (and .def_246 .def_237))) (let ((.def_248 (not .def_247))) (let ((.def_249 (and .def_246 .def_238))) (let ((.def_250 (not .def_249))) (let ((.def_251 (and .def_246 .def_241))) (let ((.def_252 (not .def_251))) (let ((.def_253 (or .def_246 .def_241 .def_238 .def_237))) (let ((.def_254 (= fluent_robot_free_r0@0 fluent_robot_free_r0@1))) (let ((.def_255 (not .def_254))) (let ((.def_256 (=> .def_255 .def_253))) (let ((.def_257 (and act_move@1 true .def_14 .def_15))) (let ((.def_258 (and act_move@1 true .def_14 .def_19))) (let ((.def_259 (and .def_258 .def_257))) (let ((.def_260 (not .def_259))) (let ((.def_261 (or .def_258 .def_257))) (let ((.def_262 (= fluent_robot_at_r0_p2@0 fluent_robot_at_r0_p2@1))) (let ((.def_263 (not .def_262))) (let ((.def_264 (=> .def_263 .def_261))) (let ((.def_265 (and act_move@1 true .def_14 .def_16))) (let ((.def_266 (and act_move@1 true .def_14 .def_20))) (let ((.def_267 (and .def_266 .def_265))) (let ((.def_268 (not .def_267))) (let ((.def_269 (or .def_266 .def_265))) (let ((.def_270 (= fluent_robot_at_r0_p1@0 fluent_robot_at_r0_p1@1))) (let ((.def_271 (not .def_270))) (let ((.def_272 (=> .def_271 .def_269))) (let ((.def_273 (and act_move@1 true .def_14 .def_17))) (let ((.def_274 (and act_move@1 true .def_14 .def_21))) (let ((.def_275 (and .def_274 .def_273))) (let ((.def_276 (not .def_275))) (let ((.def_277 (or .def_274 .def_273))) (let ((.def_278 (= fluent_robot_at_r0_p0@0 fluent_robot_at_r0_p0@1))) (let ((.def_279 (not .def_278))) (let ((.def_280 (=> .def_279 .def_277))) (let ((.def_281 (and .def_280 .def_276 .def_272 .def_268 .def_264 .def_260 .def_256 .def_252 .def_250 .def_248 .def_245 .def_243 .def_240 .def_236 .def_232 .def_230 .def_228 .def_225 .def_223 .def_220 .def_216 .def_212 .def_208 .def_204 .def_200 .def_196 .def_192 .def_188 .def_184 .def_180 .def_176 .def_172 .def_168 .def_164 .def_160 .def_156 .def_152 .def_148 .def_142 .def_138 .def_134 .def_130 .def_126 .def_122 .def_118 .def_114 .def_110 .def_106 .def_102 .def_100 .def_98 .def_95 .def_93 .def_90 .def_86 .def_82 .def_80 .def_78 .def_75 .def_73 .def_70 .def_66 .def_62 .def_60 .def_58 .def_55 .def_53 .def_50 .def_46))) (let ((.def_282 (= t@1 t@1))) (let ((.def_283 (and act_load_at_depot@1 act_load@1 .def_282))) (let ((.def_284 (not .def_283))) (let ((.def_285 (and act_move@1 act_make_treatment@1 .def_282))) (let ((.def_286 (not .def_285))) (let ((.def_287 (and act_unload_at_depot@1 act_make_treatment@1 .def_282))) (let ((.def_288 (not .def_287))) (let ((.def_289 (+ t@1 dur_make_treatment@1))) (let ((.def_290 (= t@1 .def_289))) (let ((.def_291 (and act_load@1 act_make_treatment@1 .def_290))) (let ((.def_292 (not .def_291))) (let ((.def_293 (and act_load@1 act_make_treatment@1 .def_144))) (let ((.def_294 (not .def_293))) (let ((.def_295 (and act_load_at_depot@1 act_move@1 .def_282))) (let ((.def_296 (not .def_295))) (let ((.def_297 (and act_load@1 act_unload_at_depot@1 .def_282))) (let ((.def_298 (not .def_297))) (let ((.def_299 (and act_move@1 act_unload_at_depot@1 .def_282))) (let ((.def_300 (not .def_299))) (let ((.def_301 (and act_load@1 act_move@1 .def_282))) (let ((.def_302 (not .def_301))) (let ((.def_303 (and act_load@1 act_make_treatment@1 .def_282))) (let ((.def_304 (not .def_303))) (let ((.def_305 (and act_load_at_depot@1 act_unload_at_depot@1 .def_282))) (let ((.def_306 (not .def_305))) (let ((.def_307 (and act_load_at_depot@1 act_make_treatment@1 .def_282))) (let ((.def_308 (not .def_307))) (let ((.def_309 (and .def_308 .def_306 .def_304 .def_302 .def_300 .def_298 .def_296 .def_294 .def_292 .def_288 .def_286 .def_284))) (let ((.def_310 (<= 0.0 t@1))) (let ((.def_311 (and .def_28 .def_24 .def_31))) (let ((.def_312 (ite .def_311 fluent_ready_plt0_p1_t0@1 fluent_ready_plt0_p0_t0@1))) (let ((.def_313 (and .def_28 .def_23 .def_31))) (let ((.def_314 (ite .def_313 fluent_ready_plt0_p2_t0@1 .def_312))) (let ((.def_315 (and .def_28 .def_25 .def_30))) (let ((.def_316 (ite .def_315 fluent_ready_plt0_p0_t1@1 .def_314))) (let ((.def_317 (and .def_28 .def_24 .def_30))) (let ((.def_318 (ite .def_317 fluent_ready_plt0_p1_t1@1 .def_316))) (let ((.def_319 (and .def_28 .def_23 .def_30))) (let ((.def_320 (ite .def_319 fluent_ready_plt0_p2_t1@1 .def_318))) (let ((.def_321 (and .def_28 .def_25 .def_29))) (let ((.def_322 (ite .def_321 fluent_ready_plt0_p0_t2@1 .def_320))) (let ((.def_323 (and .def_28 .def_24 .def_29))) (let ((.def_324 (ite .def_323 fluent_ready_plt0_p1_t2@1 .def_322))) (let ((.def_325 (and .def_28 .def_23 .def_29))) (let ((.def_326 (ite .def_325 fluent_ready_plt0_p2_t2@1 .def_324))) (let ((.def_327 (= .def_326 true))) (let ((.def_328 (=> true .def_327))) (let ((.def_329 (and .def_144 .def_328))) (let ((.def_330 (= fluent_robot_free_r0@1 true))) (let ((.def_331 (=> true .def_330))) (let ((.def_332 (and .def_28 .def_24))) (let ((.def_333 (ite .def_332 fluent_pallet_at_plt0_p1@1 fluent_pallet_at_plt0_p0@1))) (let ((.def_334 (and .def_28 .def_23))) (let ((.def_335 (ite .def_334 fluent_pallet_at_plt0_p2@1 .def_333))) (let ((.def_336 (= .def_335 true))) (let ((.def_337 (=> true .def_336))) (let ((.def_338 (= fluent_robot_has_r0_plt0@1 false))) (let ((.def_339 (=> true .def_338))) (let ((.def_340 (ite .def_24 fluent_position_free_p1@1 fluent_position_free_p0@1))) (let ((.def_341 (ite .def_23 fluent_position_free_p2@1 .def_340))) (let ((.def_342 (= .def_341 false))) (let ((.def_343 (=> true .def_342))) (let ((.def_344 (and .def_282 .def_343 .def_339 .def_337 .def_331))) (let ((.def_345 (ite .def_24 fluent_position_free_p1@0 fluent_position_free_p0@0))) (let ((.def_346 (ite .def_23 fluent_position_free_p2@0 .def_345))) (let ((.def_347 (and .def_28 .def_30))) (let ((.def_348 (ite .def_347 fluent_treated_plt0_t1@0 fluent_treated_plt0_t0@0))) (let ((.def_349 (and .def_28 .def_29))) (let ((.def_350 (ite .def_349 fluent_treated_plt0_t2@0 .def_348))) (let ((.def_351 (and .def_350 .def_346))) (let ((.def_352 (<= .def_289 t@1))) (let ((.def_353 (< (- 1.0) .def_289))) (let ((.def_354 (and .def_353 .def_352))) (let ((.def_355 (=> .def_354 .def_351))) (let ((.def_356 (not .def_350))) (let ((.def_357 (and .def_27 .def_24))) (let ((.def_358 (ite .def_357 fluent_robot_at_r0_p1@0 fluent_robot_at_r0_p0@0))) (let ((.def_359 (and .def_27 .def_23))) (let ((.def_360 (ite .def_359 fluent_robot_at_r0_p2@0 .def_358))) (let ((.def_361 (and .def_24 .def_31))) (let ((.def_362 (ite .def_361 false true))) (let ((.def_363 (and .def_23 .def_31))) (let ((.def_364 (ite .def_363 false .def_362))) (let ((.def_365 (and .def_25 .def_30))) (let ((.def_366 (ite .def_365 false .def_364))) (let ((.def_367 (and .def_24 .def_30))) (let ((.def_368 (ite .def_367 true .def_366))) (let ((.def_369 (and .def_23 .def_30))) (let ((.def_370 (ite .def_369 false .def_368))) (let ((.def_371 (and .def_25 .def_29))) (let ((.def_372 (ite .def_371 true .def_370))) (let ((.def_373 (and .def_24 .def_29))) (let ((.def_374 (ite .def_373 false .def_372))) (let ((.def_375 (and .def_23 .def_29))) (let ((.def_376 (ite .def_375 false .def_374))) (let ((.def_377 (and .def_376 .def_346 .def_360 fluent_robot_has_r0_plt0@0 .def_356))) (let ((.def_378 (<= t@1 t@1))) (let ((.def_379 (< (- 1.0) t@1))) (let ((.def_380 (and .def_379 .def_378))) (let ((.def_381 (=> .def_380 .def_377))) (let ((.def_382 (<= dur_make_treatment@1 20.0))) (let ((.def_383 (<= 20.0 dur_make_treatment@1))) (let ((.def_384 (and .def_383 .def_382))) (let ((.def_385 (and .def_384 .def_352 .def_381 .def_355 .def_344 .def_329))) (let ((.def_386 (=> act_make_treatment@1 .def_385))) (let ((.def_387 (and .def_0 .def_5))) (let ((.def_388 (ite .def_387 fluent_pallet_at_plt0_p1@1 fluent_pallet_at_plt0_p0@1))) (let ((.def_389 (and .def_0 .def_4))) (let ((.def_390 (ite .def_389 fluent_pallet_at_plt0_p2@1 .def_388))) (let ((.def_391 (= .def_390 true))) (let ((.def_392 (=> true .def_391))) (let ((.def_393 (and .def_1 .def_5))) (let ((.def_394 (ite .def_393 fluent_robot_at_r0_p1@0 fluent_robot_at_r0_p0@0))) (let ((.def_395 (and .def_1 .def_4))) (let ((.def_396 (ite .def_395 fluent_robot_at_r0_p2@0 .def_394))) (let ((.def_397 (ite .def_5 false false))) (let ((.def_398 (ite .def_4 true .def_397))) (let ((.def_399 (and .def_398 .def_396 fluent_robot_has_r0_plt0@0 .def_392 .def_331 .def_339))) (let ((.def_400 (=> act_unload_at_depot@1 .def_399))) (let ((.def_401 (and .def_8 .def_11))) (let ((.def_402 (ite .def_401 fluent_pallet_at_plt0_p1@1 fluent_pallet_at_plt0_p0@1))) (let ((.def_403 (and .def_8 .def_10))) (let ((.def_404 (ite .def_403 fluent_pallet_at_plt0_p2@1 .def_402))) (let ((.def_405 (= .def_404 false))) (let ((.def_406 (=> true .def_405))) (let ((.def_407 (= fluent_robot_has_r0_plt0@1 true))) (let ((.def_408 (=> true .def_407))) (let ((.def_409 (= fluent_robot_free_r0@1 false))) (let ((.def_410 (=> true .def_409))) (let ((.def_411 (ite .def_401 fluent_pallet_at_plt0_p1@0 fluent_pallet_at_plt0_p0@0))) (let ((.def_412 (ite .def_403 fluent_pallet_at_plt0_p2@0 .def_411))) (let ((.def_413 (and .def_9 .def_11))) (let ((.def_414 (ite .def_413 fluent_robot_at_r0_p1@0 fluent_robot_at_r0_p0@0))) (let ((.def_415 (and .def_9 .def_10))) (let ((.def_416 (ite .def_415 fluent_robot_at_r0_p2@0 .def_414))) (let ((.def_417 (ite .def_11 false false))) (let ((.def_418 (ite .def_10 true .def_417))) (let ((.def_419 (and .def_418 .def_416 fluent_robot_free_r0@0 .def_412 .def_410 .def_408 .def_406))) (let ((.def_420 (=> act_load_at_depot@1 .def_419))) (let ((.def_421 (ite .def_36 fluent_position_free_p1@1 fluent_position_free_p0@1))) (let ((.def_422 (ite .def_35 fluent_position_free_p2@1 .def_421))) (let ((.def_423 (= .def_422 true))) (let ((.def_424 (=> true .def_423))) (let ((.def_425 (and .def_34 .def_40))) (let ((.def_426 (ite .def_425 fluent_treated_plt0_t1@1 fluent_treated_plt0_t0@1))) (let ((.def_427 (and .def_34 .def_39))) (let ((.def_428 (ite .def_427 fluent_treated_plt0_t2@1 .def_426))) (let ((.def_429 (= .def_428 true))) (let ((.def_430 (=> true .def_429))) (let ((.def_431 (and .def_34 .def_36))) (let ((.def_432 (ite .def_431 fluent_pallet_at_plt0_p1@1 fluent_pallet_at_plt0_p0@1))) (let ((.def_433 (and .def_34 .def_35))) (let ((.def_434 (ite .def_433 fluent_pallet_at_plt0_p2@1 .def_432))) (let ((.def_435 (= .def_434 false))) (let ((.def_436 (=> true .def_435))) (let ((.def_437 (and .def_34 .def_36 .def_41))) (let ((.def_438 (ite .def_437 fluent_ready_plt0_p1_t0@1 fluent_ready_plt0_p0_t0@1))) (let ((.def_439 (and .def_34 .def_35 .def_41))) (let ((.def_440 (ite .def_439 fluent_ready_plt0_p2_t0@1 .def_438))) (let ((.def_441 (and .def_34 .def_37 .def_40))) (let ((.def_442 (ite .def_441 fluent_ready_plt0_p0_t1@1 .def_440))) (let ((.def_443 (and .def_34 .def_36 .def_40))) (let ((.def_444 (ite .def_443 fluent_ready_plt0_p1_t1@1 .def_442))) (let ((.def_445 (and .def_34 .def_35 .def_40))) (let ((.def_446 (ite .def_445 fluent_ready_plt0_p2_t1@1 .def_444))) (let ((.def_447 (and .def_34 .def_37 .def_39))) (let ((.def_448 (ite .def_447 fluent_ready_plt0_p0_t2@1 .def_446))) (let ((.def_449 (and .def_34 .def_36 .def_39))) (let ((.def_450 (ite .def_449 fluent_ready_plt0_p1_t2@1 .def_448))) (let ((.def_451 (and .def_34 .def_35 .def_39))) (let ((.def_452 (ite .def_451 fluent_ready_plt0_p2_t2@1 .def_450))) (let ((.def_453 (= .def_452 false))) (let ((.def_454 (=> true .def_453))) (let ((.def_455 (ite .def_431 fluent_pallet_at_plt0_p1@0 fluent_pallet_at_plt0_p0@0))) (let ((.def_456 (ite .def_433 fluent_pallet_at_plt0_p2@0 .def_455))) (let ((.def_457 (and .def_33 .def_36))) (let ((.def_458 (ite .def_457 fluent_robot_at_r0_p1@0 fluent_robot_at_r0_p0@0))) (let ((.def_459 (and .def_33 .def_35))) (let ((.def_460 (ite .def_459 fluent_robot_at_r0_p2@0 .def_458))) (let ((.def_461 (ite .def_437 fluent_ready_plt0_p1_t0@0 fluent_ready_plt0_p0_t0@0))) (let ((.def_462 (ite .def_439 fluent_ready_plt0_p2_t0@0 .def_461))) (let ((.def_463 (ite .def_441 fluent_ready_plt0_p0_t1@0 .def_462))) (let ((.def_464 (ite .def_443 fluent_ready_plt0_p1_t1@0 .def_463))) (let ((.def_465 (ite .def_445 fluent_ready_plt0_p2_t1@0 .def_464))) (let ((.def_466 (ite .def_447 fluent_ready_plt0_p0_t2@0 .def_465))) (let ((.def_467 (ite .def_449 fluent_ready_plt0_p1_t2@0 .def_466))) (let ((.def_468 (ite .def_451 fluent_ready_plt0_p2_t2@0 .def_467))) (let ((.def_469 (and .def_468 .def_460 fluent_robot_free_r0@0 .def_456 .def_410 .def_454 .def_436 .def_408 .def_430 .def_424))) (let ((.def_470 (=> act_load@1 .def_469))) (let ((.def_471 (and .def_16 .def_21))) (let ((.def_472 (ite .def_471 1.0 0.0))) (let ((.def_473 (and .def_15 .def_21))) (let ((.def_474 (ite .def_473 2.0 .def_472))) (let ((.def_475 (and .def_17 .def_20))) (let ((.def_476 (ite .def_475 1.0 .def_474))) (let ((.def_477 (and .def_16 .def_20))) (let ((.def_478 (ite .def_477 0.0 .def_476))) (let ((.def_479 (and .def_15 .def_20))) (let ((.def_480 (ite .def_479 1.0 .def_478))) (let ((.def_481 (and .def_17 .def_19))) (let ((.def_482 (ite .def_481 2.0 .def_480))) (let ((.def_483 (and .def_16 .def_19))) (let ((.def_484 (ite .def_483 1.0 .def_482))) (let ((.def_485 (and .def_15 .def_19))) (let ((.def_486 (ite .def_485 0.0 .def_484))) (let ((.def_487 (- fluent_battery_level_r0@0 .def_486))) (let ((.def_488 (= fluent_battery_level_r0@1 .def_487))) (let ((.def_489 (=> true .def_488))) (let ((.def_490 (and .def_14 .def_16))) (let ((.def_491 (ite .def_490 fluent_robot_at_r0_p1@1 fluent_robot_at_r0_p0@1))) (let ((.def_492 (and .def_14 .def_15))) (let ((.def_493 (ite .def_492 fluent_robot_at_r0_p2@1 .def_491))) (let ((.def_494 (= .def_493 false))) (let ((.def_495 (=> true .def_494))) (let ((.def_496 (and .def_14 .def_20))) (let ((.def_497 (ite .def_496 fluent_robot_at_r0_p1@1 fluent_robot_at_r0_p0@1))) (let ((.def_498 (and .def_14 .def_19))) (let ((.def_499 (ite .def_498 fluent_robot_at_r0_p2@1 .def_497))) (let ((.def_500 (= .def_499 true))) (let ((.def_501 (=> true .def_500))) (let ((.def_502 (<= .def_486 fluent_battery_level_r0@0))) (let ((.def_503 (ite .def_490 fluent_robot_at_r0_p1@0 fluent_robot_at_r0_p0@0))) (let ((.def_504 (ite .def_492 fluent_robot_at_r0_p2@0 .def_503))) (let ((.def_505 (= parameter_move_frompos@1 parameter_move_topos@1))) (let ((.def_506 (not .def_505))) (let ((.def_507 (and .def_506 .def_504 .def_502 .def_501 .def_495 .def_489))) (let ((.def_508 (=> act_move@1 .def_507))) (let ((.def_509 (<= fluent_battery_level_r0@0 100.0))) (let ((.def_510 (<= 0.0 fluent_battery_level_r0@0))) (let ((.def_511 (= false false))) (let ((.def_512 (= fluent_pallet_at_plt0_p1@0 false))) (let ((.def_513 (= fluent_pallet_at_plt0_p0@0 false))) (let ((.def_514 (= fluent_treated_plt0_t2@0 false))) (let ((.def_515 (= fluent_treated_plt0_t1@0 false))) (let ((.def_516 (= fluent_treated_plt0_t0@0 false))) (let ((.def_517 (= fluent_ready_plt0_p2_t2@0 false))) (let ((.def_518 (= fluent_ready_plt0_p1_t2@0 false))) (let ((.def_519 (= fluent_ready_plt0_p0_t2@0 false))) (let ((.def_520 (= fluent_ready_plt0_p2_t1@0 false))) (let ((.def_521 (= fluent_ready_plt0_p1_t1@0 false))) (let ((.def_522 (= fluent_ready_plt0_p0_t1@0 false))) (let ((.def_523 (= fluent_ready_plt0_p2_t0@0 false))) (let ((.def_524 (= fluent_ready_plt0_p1_t0@0 false))) (let ((.def_525 (= fluent_ready_plt0_p0_t0@0 false))) (let ((.def_526 (= fluent_robot_has_r0_plt0@0 false))) (let ((.def_527 (= fluent_robot_at_r0_p1@0 false))) (let ((.def_528 (= fluent_robot_at_r0_p0@0 false))) (let ((.def_529 (= true true))) (let ((.def_530 (= fluent_position_free_p2@0 true))) (let ((.def_531 (= fluent_position_free_p1@0 true))) (let ((.def_532 (= fluent_position_free_p0@0 true))) (let ((.def_533 (= 0.0 0.0))) (let ((.def_534 (= 1.0 1.0))) (let ((.def_535 (= 2.0 2.0))) (let ((.def_536 (= fluent_battery_level_r0@0 6.0))) (let ((.def_537 (= fluent_pallet_at_plt0_p2@0 true))) (let ((.def_538 (= fluent_robot_free_r0@0 true))) (let ((.def_539 (= fluent_robot_at_r0_p2@0 true))) (let ((.def_540 (and .def_539 .def_538 .def_537 .def_536 .def_533 .def_534 .def_534 .def_535 .def_535 .def_533 .def_534 .def_534 .def_533 .def_529 .def_532 .def_531 .def_530 .def_529 .def_529 .def_529 .def_528 .def_527 .def_526 .def_525 .def_524 .def_523 .def_522 .def_521 .def_520 .def_519 .def_518 .def_517 .def_516 .def_515 .def_514 .def_513 .def_512 .def_511 .def_511 .def_511 .def_511 .def_511 .def_511 .def_511 .def_511 .def_510 .def_509))) (let ((.def_541 (and .def_540 .def_508 .def_470 .def_420 .def_400 .def_386 .def_310 .def_309 true .def_281 .def_42 .def_38 .def_34 .def_33 .def_32 .def_28 .def_27 .def_26 .def_22 .def_18 .def_14 .def_13 .def_9 .def_8 .def_7 .def_3 .def_2 .def_1 .def_0 true))) .def_541)))))))))))))))))))))))))))))))))))))))))))))))))))))))))))))))))))))))))))))))))))))))))))))))))))))))))))))))))))))))))))))))))))))))))))))))))))))))))))))))))))))))))))))))))))))))))))))))))))))))))))))))))))))))))))))))))))))))))))))))))))))))))))))))))))))))))))))))))))))))))))))))))))))))))))))))))))))))))))))))))))))))))))))))))))))))))))))))))))))))))))))))))))))))))))))))))))))))))))))))))))))))))))))))))))))))))))))))))))))))))))))))))))))))))))))))))))))))))))))))))))))))))))))))))))))))))))))))))))))))))))))))))))))))))))))))
(check-sat)

--------------------------------------------------------------------------------
